21 24
21 10
42 99
66 83
59 6
89 21
95 1
24 72
35 72
0 88
73 76
69 90
64 96
97 60
72 36
76 56
65 32
82 84
72 82
91 82
50 31
18 33
52 67
50 21
93 44
97 42
82 60
11 94
72 8
4 51
34 72
56 74
64 92
37 83
86 72
37 84
85 27
75 94
65 97
7 50
78 95
67 7
25 16
54 74
77 76
